(set-logic QF_BV)

(declare-const __ESBMC_ptr_obj_start_0 (_ BitVec 64))

(declare-const __ESBMC_ptr_obj_end_0 (_ BitVec 64))

(declare-const __ESBMC_ptr_obj_start_1 (_ BitVec 64))

(declare-const __ESBMC_ptr_obj_end_1 (_ BitVec 64))

(declare-const |smt_conv::__ESBMC_ptr_addr_range_0..start0| (_ BitVec 64))

(declare-const |smt_conv::__ESBMC_ptr_addr_range_0..end0| (_ BitVec 64))

(declare-const |smt_conv::__ESBMC_ptr_addr_range_1..start0| (_ BitVec 64))

(declare-const |smt_conv::__ESBMC_ptr_addr_range_1..end0| (_ BitVec 64))

(declare-const |smt_conv::smt_conv::collate_array_vals::3..start0| (_ BitVec 64))

(declare-const |smt_conv::smt_conv::collate_array_vals::3..end0| (_ BitVec 64))

(declare-const |smt_conv::smt_conv::collate_array_vals::4..start0| (_ BitVec 64))

(declare-const |smt_conv::smt_conv::collate_array_vals::4..end0| (_ BitVec 64))

(declare-const |smt_conv::smt_conv::collate_array_vals::7..start0| (_ BitVec 64))

(declare-const |smt_conv::smt_conv::collate_array_vals::7..end0| (_ BitVec 64))

(declare-const |c:flag_loopdep_simple.i@935@F@init@i?1!0&0#2| (_ BitVec 32))

(declare-const |nondet$symex::nondet35| (_ BitVec 32))

(declare-const |c:flag_loopdep_simple.i@1042@F@main@i?1!0&0#2| (_ BitVec 32))

(declare-const |nondet$symex::nondet41| (_ BitVec 32))

(declare-const |c:flag_loopdep_simple.i@1050@F@main@flag?1!0&0#2| (_ BitVec 32))

(declare-const |nondet$symex::nondet42| (_ BitVec 32))

(declare-const |goto_symex::guard?0!0&0#5| (_ BitVec 1))

(declare-const |goto_symex::guard?0!0&0#6| (_ BitVec 1))

(declare-const |smt_conv::smt_conv::collate_array_vals::9..n0| (_ BitVec 32))

(declare-const |c:flag_loopdep_simple.i@1050@F@main@flag?1!0&0#4| (_ BitVec 32))

(declare-const |c:flag_loopdep_simple.i@1042@F@main@i?1!0&0#3| (_ BitVec 32))

(declare-const |goto_symex::guard?0!0&0#7| (_ BitVec 1))

(declare-const |goto_symex::guard?0!0&0#8| (_ BitVec 1))

(declare-const |smt_conv::smt_conv::collate_array_vals::10..n0| (_ BitVec 32))

(declare-const |c:flag_loopdep_simple.i@1050@F@main@flag?1!0&0#6| (_ BitVec 32))

(declare-const |c:flag_loopdep_simple.i@1042@F@main@i?1!0&0#4| (_ BitVec 32))

(declare-const |goto_symex::guard?0!0&0#9| (_ BitVec 1))

(declare-const |goto_symex::guard?0!0&0#10| (_ BitVec 1))

(declare-const |smt_conv::smt_conv::collate_array_vals::11..n0| (_ BitVec 32))

(declare-const |c:flag_loopdep_simple.i@1050@F@main@flag?1!0&0#8| (_ BitVec 32))

(declare-const |c:flag_loopdep_simple.i@1042@F@main@i?1!0&0#5| (_ BitVec 32))

(declare-const |goto_symex::guard?0!0&0#11| (_ BitVec 1))

(declare-const |goto_symex::guard?0!0&0#12| (_ BitVec 1))

(declare-const |smt_conv::smt_conv::collate_array_vals::12..n0| (_ BitVec 32))

(declare-const |c:flag_loopdep_simple.i@1050@F@main@flag?1!0&0#10| (_ BitVec 32))

(declare-const |c:flag_loopdep_simple.i@1050@F@main@flag?1!0&0#11| (_ BitVec 32))

(declare-const |c:flag_loopdep_simple.i@1050@F@main@flag?1!0&0#12| (_ BitVec 32))

(declare-const |c:flag_loopdep_simple.i@1050@F@main@flag?1!0&0#13| (_ BitVec 32))

(declare-const |c:flag_loopdep_simple.i@1050@F@main@flag?1!0&0#14| (_ BitVec 32))

(declare-const |c:flag_loopdep_simple.i@1042@F@main@i?1!0&0#12| (_ BitVec 32))

(declare-const |nondet$symex::nondet43| (_ BitVec 32))

(declare-const |goto_symex::guard?0!0&0#13| (_ BitVec 1))

(declare-const |goto_symex::guard?0!0&0#14| (_ BitVec 1))

(declare-const |c:flag_loopdep_simple.i@778@F@__VERIFIER_assert@cond?1!0&0#1| (_ BitVec 32))

(declare-const |smt_conv::smt_conv::collate_array_vals::13..n0| (_ BitVec 32))

(declare-const |goto_symex::guard?0!0&0#15| (_ BitVec 1))

(declare-const |c:flag_loopdep_simple.i@1042@F@main@i?1!0&0#13| (_ BitVec 32))

(declare-const |goto_symex::guard?0!0&0#16| (_ BitVec 1))

(declare-const |goto_symex::guard?0!0&0#17| (_ BitVec 1))

(declare-const |c:flag_loopdep_simple.i@778@F@__VERIFIER_assert@cond?2!0&0#1| (_ BitVec 32))

(declare-const |smt_conv::smt_conv::collate_array_vals::14..n0| (_ BitVec 32))

(declare-const |goto_symex::guard?0!0&0#18| (_ BitVec 1))

(declare-const |c:flag_loopdep_simple.i@1042@F@main@i?1!0&0#14| (_ BitVec 32))

(declare-const |goto_symex::guard?0!0&0#19| (_ BitVec 1))

(declare-const |goto_symex::guard?0!0&0#20| (_ BitVec 1))

(declare-const |c:flag_loopdep_simple.i@778@F@__VERIFIER_assert@cond?3!0&0#1| (_ BitVec 32))

(declare-const |smt_conv::smt_conv::collate_array_vals::15..n0| (_ BitVec 32))

(declare-const |goto_symex::guard?0!0&0#21| (_ BitVec 1))

(declare-const |c:flag_loopdep_simple.i@1042@F@main@i?1!0&0#15| (_ BitVec 32))

(declare-const |goto_symex::guard?0!0&0#22| (_ BitVec 1))

(declare-const |goto_symex::guard?0!0&0#23| (_ BitVec 1))

(declare-const |c:flag_loopdep_simple.i@778@F@__VERIFIER_assert@cond?4!0&0#1| (_ BitVec 32))

(declare-const |smt_conv::smt_conv::collate_array_vals::16..n0| (_ BitVec 32))

(declare-const |goto_symex::guard?0!0&0#24| (_ BitVec 1))

(declare-const |execution_statet::guard_exec?0!0| (_ BitVec 1))

(define-fun $e1 () Bool 

 (bvslt |c:flag_loopdep_simple.i@1042@F@main@i?1!0&0#2| #b00000000000011110100001001000000))

(define-fun $e2 () Bool 

 (bvslt #b00000000000011110100001000111111 |c:flag_loopdep_simple.i@1042@F@main@i?1!0&0#2|))

(define-fun $e3 () Bool 

 (and 

  (not 

   (bvslt |c:flag_loopdep_simple.i@1050@F@main@flag?1!0&0#2| #b00000000000000000000000000000000)) 

  (not 

   (bvslt #b00000000000000000000000000000001 |c:flag_loopdep_simple.i@1050@F@main@flag?1!0&0#2|)) 

  (not $e2)))

(define-fun $e4 () (_ BitVec 20) 

 ((_ extract 19 0) |c:flag_loopdep_simple.i@1042@F@main@i?1!0&0#2|))

(define-fun $e5 () (_ BitVec 1) 

 (bvand |goto_symex::guard?0!0&0#5| |goto_symex::guard?0!0&0#6|))

(define-fun $e6 () (_ BitVec 1) 

 (bvand |goto_symex::guard?0!0&0#5| |goto_symex::guard?0!0&0#7|))

(define-fun $e7 () Bool 

 (bvslt #b00000000000011110100001000111111 |c:flag_loopdep_simple.i@1042@F@main@i?1!0&0#3|))

(define-fun $e8 () Bool 

 (and 

  (not 

   (bvslt |c:flag_loopdep_simple.i@1050@F@main@flag?1!0&0#4| #b00000000000000000000000000000000)) 

  (not 

   (bvslt #b00000000000000000000000000000001 |c:flag_loopdep_simple.i@1050@F@main@flag?1!0&0#4|)) 

  (not $e7)))

(define-fun $e9 () (_ BitVec 20) 

 ((_ extract 19 0) |c:flag_loopdep_simple.i@1042@F@main@i?1!0&0#3|))

(define-fun $e10 () (_ BitVec 1) 

 (bvand $e6 |goto_symex::guard?0!0&0#8|))

(define-fun $e11 () (_ BitVec 1) 

 (bvand $e6 |goto_symex::guard?0!0&0#9|))

(define-fun $e12 () Bool 

 (bvslt #b00000000000011110100001000111111 |c:flag_loopdep_simple.i@1042@F@main@i?1!0&0#4|))

(define-fun $e13 () Bool 

 (and 

  (not 

   (bvslt |c:flag_loopdep_simple.i@1050@F@main@flag?1!0&0#6| #b00000000000000000000000000000000)) 

  (not 

   (bvslt #b00000000000000000000000000000001 |c:flag_loopdep_simple.i@1050@F@main@flag?1!0&0#6|)) 

  (not $e12)))

(define-fun $e14 () (_ BitVec 20) 

 ((_ extract 19 0) |c:flag_loopdep_simple.i@1042@F@main@i?1!0&0#4|))

(define-fun $e15 () (_ BitVec 1) 

 (bvand $e11 |goto_symex::guard?0!0&0#10|))

(define-fun $e16 () (_ BitVec 1) 

 (bvand $e11 |goto_symex::guard?0!0&0#11|))

(define-fun $e17 () Bool 

 (bvslt #b00000000000011110100001000111111 |c:flag_loopdep_simple.i@1042@F@main@i?1!0&0#5|))

(define-fun $e18 () Bool 

 (and 

  (not 

   (bvslt |c:flag_loopdep_simple.i@1050@F@main@flag?1!0&0#8| #b00000000000000000000000000000000)) 

  (not 

   (bvslt #b00000000000000000000000000000001 |c:flag_loopdep_simple.i@1050@F@main@flag?1!0&0#8|)) 

  (not $e17)))

(define-fun $e19 () (_ BitVec 20) 

 ((_ extract 19 0) |c:flag_loopdep_simple.i@1042@F@main@i?1!0&0#5|))

(define-fun $e20 () (_ BitVec 1) 

 (bvand $e16 |goto_symex::guard?0!0&0#12|))

(define-fun $e21 () Bool 

 (bvslt #b00000000000000000000000000000001 |c:flag_loopdep_simple.i@1050@F@main@flag?1!0&0#14|))

(define-fun $e22 () Bool 

 (bvslt |c:flag_loopdep_simple.i@1050@F@main@flag?1!0&0#14| #b00000000000000000000000000000000))

(define-fun $e23 () Bool 

 (and 

  (not $e22) 

  (not $e21)))

(define-fun $e24 () Bool 

 (bvslt |c:flag_loopdep_simple.i@1042@F@main@i?1!0&0#12| #b00000000000011110100001001000000))

(define-fun $e25 () Bool 

 (bvslt #b00000000000011110100001000111111 |c:flag_loopdep_simple.i@1042@F@main@i?1!0&0#12|))

(define-fun $e26 () Bool 

 (and 

  (not $e25) $e23))

(define-fun $e27 () Bool 

 (= #b00000000000000000000000000000000 |c:flag_loopdep_simple.i@1050@F@main@flag?1!0&0#14|))

(define-fun $e28 () (_ BitVec 1) 

 (bvand |goto_symex::guard?0!0&0#13| |goto_symex::guard?0!0&0#14|))

(define-fun $e29 () (_ BitVec 20) 

 ((_ extract 19 0) |c:flag_loopdep_simple.i@1042@F@main@i?1!0&0#12|))

(define-fun $e30 () Bool 

 (= #b00000000000000000000000000000000 |c:flag_loopdep_simple.i@778@F@__VERIFIER_assert@cond?1!0&0#1|))

(define-fun $e31 () (_ BitVec 1) 

 (bvand $e28 |goto_symex::guard?0!0&0#15|))

(define-fun $e32 () (_ BitVec 1) 

 (bvand |goto_symex::guard?0!0&0#13| |goto_symex::guard?0!0&0#16|))

(define-fun $e33 () Bool 

 (bvslt #b00000000000011110100001000111111 |c:flag_loopdep_simple.i@1042@F@main@i?1!0&0#13|))

(define-fun $e34 () Bool 

 (and 

  (not $e33) $e23))

(define-fun $e35 () (_ BitVec 1) 

 (bvand $e32 |goto_symex::guard?0!0&0#17|))

(define-fun $e36 () (_ BitVec 20) 

 ((_ extract 19 0) |c:flag_loopdep_simple.i@1042@F@main@i?1!0&0#13|))

(define-fun $e37 () Bool 

 (= #b00000000000000000000000000000000 |c:flag_loopdep_simple.i@778@F@__VERIFIER_assert@cond?2!0&0#1|))

(define-fun $e38 () (_ BitVec 1) 

 (bvand $e35 |goto_symex::guard?0!0&0#18|))

(define-fun $e39 () (_ BitVec 1) 

 (bvand $e32 |goto_symex::guard?0!0&0#19|))

(define-fun $e40 () Bool 

 (bvslt #b00000000000011110100001000111111 |c:flag_loopdep_simple.i@1042@F@main@i?1!0&0#14|))

(define-fun $e41 () Bool 

 (and 

  (not $e40) $e23))

(define-fun $e42 () (_ BitVec 1) 

 (bvand $e39 |goto_symex::guard?0!0&0#20|))

(define-fun $e43 () (_ BitVec 20) 

 ((_ extract 19 0) |c:flag_loopdep_simple.i@1042@F@main@i?1!0&0#14|))

(define-fun $e44 () Bool 

 (= #b00000000000000000000000000000000 |c:flag_loopdep_simple.i@778@F@__VERIFIER_assert@cond?3!0&0#1|))

(define-fun $e45 () (_ BitVec 1) 

 (bvand $e42 |goto_symex::guard?0!0&0#21|))

(define-fun $e46 () (_ BitVec 1) 

 (bvand $e39 |goto_symex::guard?0!0&0#22|))

(define-fun $e47 () Bool 

 (bvslt #b00000000000011110100001000111111 |c:flag_loopdep_simple.i@1042@F@main@i?1!0&0#15|))

(define-fun $e48 () (_ BitVec 1) 

 (bvand $e46 |goto_symex::guard?0!0&0#23|))

(define-fun $e49 () (_ BitVec 20) 

 ((_ extract 19 0) |c:flag_loopdep_simple.i@1042@F@main@i?1!0&0#15|))

(define-fun $e50 () Bool 

 (= #b00000000000000000000000000000000 |c:flag_loopdep_simple.i@778@F@__VERIFIER_assert@cond?4!0&0#1|))

(assert 

 (= __ESBMC_ptr_obj_start_0 #b0000000000000000000000000000000000000000000000000000000000000000))

(assert 

 (= #b0000000000000000000000000000000000000000000000000000000000000000 __ESBMC_ptr_obj_end_0))

(assert 

 (= __ESBMC_ptr_obj_start_1 #b0000000000000000000000000000000000000000000000000000000000000001))

(assert 

 (= #b1111111111111111111111111111111111111111111111111111111111111111 __ESBMC_ptr_obj_end_1))

(assert 

 (= __ESBMC_ptr_obj_end_0 |smt_conv::__ESBMC_ptr_addr_range_0..end0|))

(assert 

 (= __ESBMC_ptr_obj_start_0 |smt_conv::__ESBMC_ptr_addr_range_0..start0|))

(assert 

 (= __ESBMC_ptr_obj_end_1 |smt_conv::__ESBMC_ptr_addr_range_1..end0|))

(assert 

 (= __ESBMC_ptr_obj_start_1 |smt_conv::__ESBMC_ptr_addr_range_1..start0|))

(assert 

 (= |smt_conv::smt_conv::collate_array_vals::3..end0| |smt_conv::smt_conv::collate_array_vals::4..end0|))

(assert 

 (= |smt_conv::smt_conv::collate_array_vals::3..start0| |smt_conv::smt_conv::collate_array_vals::4..start0|))

(assert 

 (= __ESBMC_ptr_obj_end_0 |smt_conv::smt_conv::collate_array_vals::7..end0|))

(assert 

 (= __ESBMC_ptr_obj_start_0 |smt_conv::smt_conv::collate_array_vals::7..start0|))

(assert 

 (= |c:flag_loopdep_simple.i@935@F@init@i?1!0&0#2| |nondet$symex::nondet35|))

(assert 

 (= |c:flag_loopdep_simple.i@1042@F@main@i?1!0&0#2| |nondet$symex::nondet41|))

(assert 

 (= |c:flag_loopdep_simple.i@1050@F@main@flag?1!0&0#2| |nondet$symex::nondet42|))

(assert 

 (= 

  (ite $e1 #b1 #b0) |goto_symex::guard?0!0&0#5|))

(assert 

 (= |goto_symex::guard?0!0&0#6| 

  (bvnot 

   (ite 

    (= #b00000000000000000000000000000000 |smt_conv::smt_conv::collate_array_vals::9..n0|) #b1 #b0))))

(assert 

 (= |c:flag_loopdep_simple.i@1050@F@main@flag?1!0&0#4| 

  (ite 

   (= #b1 |goto_symex::guard?0!0&0#6|) #b00000000000000000000000000000001 |c:flag_loopdep_simple.i@1050@F@main@flag?1!0&0#2|)))

(assert 

 (= |c:flag_loopdep_simple.i@1042@F@main@i?1!0&0#3| 

  (bvadd |c:flag_loopdep_simple.i@1042@F@main@i?1!0&0#2| #b00000000000000000000000000000001)))

(assert 

 (= |goto_symex::guard?0!0&0#7| 

  (ite 

   (bvslt |c:flag_loopdep_simple.i@1042@F@main@i?1!0&0#3| #b00000000000011110100001001000000) #b1 #b0)))

(assert 

 (not 

  (and 

   (not 

    (= |smt_conv::smt_conv::collate_array_vals::9..n0| |smt_conv::smt_conv::collate_array_vals::10..n0|)) 

   (= $e4 $e9))))

(assert 

 (= |goto_symex::guard?0!0&0#8| 

  (bvnot 

   (ite 

    (= #b00000000000000000000000000000000 |smt_conv::smt_conv::collate_array_vals::10..n0|) #b1 #b0))))

(assert 

 (= |c:flag_loopdep_simple.i@1050@F@main@flag?1!0&0#6| 

  (ite 

   (= #b1 |goto_symex::guard?0!0&0#8|) #b00000000000000000000000000000001 |c:flag_loopdep_simple.i@1050@F@main@flag?1!0&0#4|)))

(assert 

 (= |c:flag_loopdep_simple.i@1042@F@main@i?1!0&0#4| 

  (bvadd #b00000000000000000000000000000001 |c:flag_loopdep_simple.i@1042@F@main@i?1!0&0#3|)))

(assert 

 (= |goto_symex::guard?0!0&0#9| 

  (ite 

   (bvslt |c:flag_loopdep_simple.i@1042@F@main@i?1!0&0#4| #b00000000000011110100001001000000) #b1 #b0)))

(assert 

 (not 

  (and 

   (not 

    (= |smt_conv::smt_conv::collate_array_vals::9..n0| |smt_conv::smt_conv::collate_array_vals::11..n0|)) 

   (= $e4 $e14))))

(assert 

 (not 

  (and 

   (not 

    (= |smt_conv::smt_conv::collate_array_vals::10..n0| |smt_conv::smt_conv::collate_array_vals::11..n0|)) 

   (= $e9 $e14))))

(assert 

 (= |goto_symex::guard?0!0&0#10| 

  (bvnot 

   (ite 

    (= #b00000000000000000000000000000000 |smt_conv::smt_conv::collate_array_vals::11..n0|) #b1 #b0))))

(assert 

 (= |c:flag_loopdep_simple.i@1050@F@main@flag?1!0&0#8| 

  (ite 

   (= #b1 |goto_symex::guard?0!0&0#10|) #b00000000000000000000000000000001 |c:flag_loopdep_simple.i@1050@F@main@flag?1!0&0#6|)))

(assert 

 (= |c:flag_loopdep_simple.i@1042@F@main@i?1!0&0#5| 

  (bvadd #b00000000000000000000000000000001 |c:flag_loopdep_simple.i@1042@F@main@i?1!0&0#4|)))

(assert 

 (= |goto_symex::guard?0!0&0#11| 

  (ite 

   (bvslt |c:flag_loopdep_simple.i@1042@F@main@i?1!0&0#5| #b00000000000011110100001001000000) #b1 #b0)))

(assert 

 (not 

  (and 

   (not 

    (= |smt_conv::smt_conv::collate_array_vals::9..n0| |smt_conv::smt_conv::collate_array_vals::12..n0|)) 

   (= $e4 $e19))))

(assert 

 (not 

  (and 

   (not 

    (= |smt_conv::smt_conv::collate_array_vals::10..n0| |smt_conv::smt_conv::collate_array_vals::12..n0|)) 

   (= $e9 $e19))))

(assert 

 (not 

  (and 

   (not 

    (= |smt_conv::smt_conv::collate_array_vals::11..n0| |smt_conv::smt_conv::collate_array_vals::12..n0|)) 

   (= $e14 $e19))))

(assert 

 (= |goto_symex::guard?0!0&0#12| 

  (bvnot 

   (ite 

    (= #b00000000000000000000000000000000 |smt_conv::smt_conv::collate_array_vals::12..n0|) #b1 #b0))))

(assert 

 (= |c:flag_loopdep_simple.i@1050@F@main@flag?1!0&0#10| 

  (ite 

   (= #b1 |goto_symex::guard?0!0&0#12|) #b00000000000000000000000000000001 |c:flag_loopdep_simple.i@1050@F@main@flag?1!0&0#8|)))

(assert 

 (= |c:flag_loopdep_simple.i@1050@F@main@flag?1!0&0#11| 

  (ite 

   (= #b1 |goto_symex::guard?0!0&0#11|) |c:flag_loopdep_simple.i@1050@F@main@flag?1!0&0#10| |c:flag_loopdep_simple.i@1050@F@main@flag?1!0&0#8|)))

(assert 

 (= |c:flag_loopdep_simple.i@1050@F@main@flag?1!0&0#12| 

  (ite 

   (= #b1 |goto_symex::guard?0!0&0#9|) |c:flag_loopdep_simple.i@1050@F@main@flag?1!0&0#11| |c:flag_loopdep_simple.i@1050@F@main@flag?1!0&0#6|)))

(assert 

 (= |c:flag_loopdep_simple.i@1050@F@main@flag?1!0&0#13| 

  (ite 

   (= #b1 |goto_symex::guard?0!0&0#7|) |c:flag_loopdep_simple.i@1050@F@main@flag?1!0&0#12| |c:flag_loopdep_simple.i@1050@F@main@flag?1!0&0#4|)))

(assert 

 (= |c:flag_loopdep_simple.i@1050@F@main@flag?1!0&0#14| 

  (ite 

   (= #b1 |goto_symex::guard?0!0&0#5|) |c:flag_loopdep_simple.i@1050@F@main@flag?1!0&0#13| |c:flag_loopdep_simple.i@1050@F@main@flag?1!0&0#2|)))

(assert 

 (= |c:flag_loopdep_simple.i@1042@F@main@i?1!0&0#12| |nondet$symex::nondet43|))

(assert 

 (= 

  (ite $e24 #b1 #b0) |goto_symex::guard?0!0&0#13|))

(assert 

 (= |goto_symex::guard?0!0&0#14| 

  (ite $e27 #b1 #b0)))

(assert 

 (not 

  (and 

   (not 

    (= |smt_conv::smt_conv::collate_array_vals::9..n0| |smt_conv::smt_conv::collate_array_vals::13..n0|)) 

   (= $e4 $e29))))

(assert 

 (not 

  (and 

   (not 

    (= |smt_conv::smt_conv::collate_array_vals::10..n0| |smt_conv::smt_conv::collate_array_vals::13..n0|)) 

   (= $e9 $e29))))

(assert 

 (not 

  (and 

   (not 

    (= |smt_conv::smt_conv::collate_array_vals::11..n0| |smt_conv::smt_conv::collate_array_vals::13..n0|)) 

   (= $e14 $e29))))

(assert 

 (not 

  (and 

   (not 

    (= |smt_conv::smt_conv::collate_array_vals::12..n0| |smt_conv::smt_conv::collate_array_vals::13..n0|)) 

   (= $e19 $e29))))

(assert 

 (= |c:flag_loopdep_simple.i@778@F@__VERIFIER_assert@cond?1!0&0#1| 

  (ite 

   (= #b00000000000000000000000000000000 |smt_conv::smt_conv::collate_array_vals::13..n0|) #b00000000000000000000000000000001 #b00000000000000000000000000000000)))

(assert 

 (= |goto_symex::guard?0!0&0#15| 

  (ite $e30 #b1 #b0)))

(assert 

 (= |c:flag_loopdep_simple.i@1042@F@main@i?1!0&0#13| 

  (bvadd #b00000000000000000000000000000001 |c:flag_loopdep_simple.i@1042@F@main@i?1!0&0#12|)))

(assert 

 (= |goto_symex::guard?0!0&0#16| 

  (ite 

   (bvslt |c:flag_loopdep_simple.i@1042@F@main@i?1!0&0#13| #b00000000000011110100001001000000) #b1 #b0)))

(assert 

 (= 

  (ite $e27 #b1 #b0) |goto_symex::guard?0!0&0#17|))

(assert 

 (not 

  (and 

   (not 

    (= |smt_conv::smt_conv::collate_array_vals::9..n0| |smt_conv::smt_conv::collate_array_vals::14..n0|)) 

   (= $e4 $e36))))

(assert 

 (not 

  (and 

   (not 

    (= |smt_conv::smt_conv::collate_array_vals::10..n0| |smt_conv::smt_conv::collate_array_vals::14..n0|)) 

   (= $e9 $e36))))

(assert 

 (not 

  (and 

   (not 

    (= |smt_conv::smt_conv::collate_array_vals::11..n0| |smt_conv::smt_conv::collate_array_vals::14..n0|)) 

   (= $e14 $e36))))

(assert 

 (not 

  (and 

   (not 

    (= |smt_conv::smt_conv::collate_array_vals::12..n0| |smt_conv::smt_conv::collate_array_vals::14..n0|)) 

   (= $e19 $e36))))

(assert 

 (not 

  (and 

   (not 

    (= |smt_conv::smt_conv::collate_array_vals::13..n0| |smt_conv::smt_conv::collate_array_vals::14..n0|)) 

   (= $e29 $e36))))

(assert 

 (= |c:flag_loopdep_simple.i@778@F@__VERIFIER_assert@cond?2!0&0#1| 

  (ite 

   (= #b00000000000000000000000000000000 |smt_conv::smt_conv::collate_array_vals::14..n0|) #b00000000000000000000000000000001 #b00000000000000000000000000000000)))

(assert 

 (= |goto_symex::guard?0!0&0#18| 

  (ite $e37 #b1 #b0)))

(assert 

 (= |c:flag_loopdep_simple.i@1042@F@main@i?1!0&0#14| 

  (bvadd #b00000000000000000000000000000001 |c:flag_loopdep_simple.i@1042@F@main@i?1!0&0#13|)))

(assert 

 (= |goto_symex::guard?0!0&0#19| 

  (ite 

   (bvslt |c:flag_loopdep_simple.i@1042@F@main@i?1!0&0#14| #b00000000000011110100001001000000) #b1 #b0)))

(assert 

 (= 

  (ite $e27 #b1 #b0) |goto_symex::guard?0!0&0#20|))

(assert 

 (not 

  (and 

   (not 

    (= |smt_conv::smt_conv::collate_array_vals::9..n0| |smt_conv::smt_conv::collate_array_vals::15..n0|)) 

   (= $e4 $e43))))

(assert 

 (not 

  (and 

   (not 

    (= |smt_conv::smt_conv::collate_array_vals::10..n0| |smt_conv::smt_conv::collate_array_vals::15..n0|)) 

   (= $e9 $e43))))

(assert 

 (not 

  (and 

   (not 

    (= |smt_conv::smt_conv::collate_array_vals::11..n0| |smt_conv::smt_conv::collate_array_vals::15..n0|)) 

   (= $e14 $e43))))

(assert 

 (not 

  (and 

   (not 

    (= |smt_conv::smt_conv::collate_array_vals::12..n0| |smt_conv::smt_conv::collate_array_vals::15..n0|)) 

   (= $e19 $e43))))

(assert 

 (not 

  (and 

   (not 

    (= |smt_conv::smt_conv::collate_array_vals::13..n0| |smt_conv::smt_conv::collate_array_vals::15..n0|)) 

   (= $e29 $e43))))

(assert 

 (not 

  (and 

   (not 

    (= |smt_conv::smt_conv::collate_array_vals::14..n0| |smt_conv::smt_conv::collate_array_vals::15..n0|)) 

   (= $e36 $e43))))

(assert 

 (= |c:flag_loopdep_simple.i@778@F@__VERIFIER_assert@cond?3!0&0#1| 

  (ite 

   (= #b00000000000000000000000000000000 |smt_conv::smt_conv::collate_array_vals::15..n0|) #b00000000000000000000000000000001 #b00000000000000000000000000000000)))

(assert 

 (= |goto_symex::guard?0!0&0#21| 

  (ite $e44 #b1 #b0)))

(assert 

 (= |c:flag_loopdep_simple.i@1042@F@main@i?1!0&0#15| 

  (bvadd #b00000000000000000000000000000001 |c:flag_loopdep_simple.i@1042@F@main@i?1!0&0#14|)))

(assert 

 (= |goto_symex::guard?0!0&0#22| 

  (ite 

   (bvslt |c:flag_loopdep_simple.i@1042@F@main@i?1!0&0#15| #b00000000000011110100001001000000) #b1 #b0)))

(assert 

 (= 

  (ite $e27 #b1 #b0) |goto_symex::guard?0!0&0#23|))

(assert 

 (not 

  (and 

   (not 

    (= |smt_conv::smt_conv::collate_array_vals::9..n0| |smt_conv::smt_conv::collate_array_vals::16..n0|)) 

   (= $e4 $e49))))

(assert 

 (not 

  (and 

   (not 

    (= |smt_conv::smt_conv::collate_array_vals::10..n0| |smt_conv::smt_conv::collate_array_vals::16..n0|)) 

   (= $e9 $e49))))

(assert 

 (not 

  (and 

   (not 

    (= |smt_conv::smt_conv::collate_array_vals::11..n0| |smt_conv::smt_conv::collate_array_vals::16..n0|)) 

   (= $e14 $e49))))

(assert 

 (not 

  (and 

   (not 

    (= |smt_conv::smt_conv::collate_array_vals::12..n0| |smt_conv::smt_conv::collate_array_vals::16..n0|)) 

   (= $e19 $e49))))

(assert 

 (not 

  (and 

   (not 

    (= |smt_conv::smt_conv::collate_array_vals::13..n0| |smt_conv::smt_conv::collate_array_vals::16..n0|)) 

   (= $e29 $e49))))

(assert 

 (not 

  (and 

   (not 

    (= |smt_conv::smt_conv::collate_array_vals::14..n0| |smt_conv::smt_conv::collate_array_vals::16..n0|)) 

   (= $e36 $e49))))

(assert 

 (not 

  (and 

   (not 

    (= |smt_conv::smt_conv::collate_array_vals::15..n0| |smt_conv::smt_conv::collate_array_vals::16..n0|)) 

   (= $e43 $e49))))

(assert 

 (= |c:flag_loopdep_simple.i@778@F@__VERIFIER_assert@cond?4!0&0#1| 

  (ite 

   (= #b00000000000000000000000000000000 |smt_conv::smt_conv::collate_array_vals::16..n0|) #b00000000000000000000000000000001 #b00000000000000000000000000000000)))

(assert 

 (= |goto_symex::guard?0!0&0#24| 

  (ite $e50 #b1 #b0)))

(assert (= 

 (bvnot 

  (bvand 

   (bvnot 

    (ite $e50 #b1 #b0)) 

   (bvand $e48 |goto_symex::guard?0!0&0#24|))) #b1))

(assert (= 

 (bvnot 

  (bvand $e48 

   (bvnot 

    (ite 

     (and 

      (not $e47) $e27) #b1 #b0)))) #b1))

(assert (= 

 (bvnot 

  (bvand $e46 

   (bvnot 

    (ite 

     (and 

      (not $e47) $e23) #b1 #b0)))) #b1))

(assert (= 

 (bvnot 

  (bvand 

   (bvnot 

    (ite $e41 #b1 #b0)) $e42)) #b1))

(assert (= 

 (bvnot $e45) #b1))

(assert (= 

 (bvnot 

  (bvand 

   (bvnot 

    (ite $e44 #b1 #b0)) $e45)) #b1))

(assert (= 

 (bvnot 

  (bvand $e42 

   (bvnot 

    (ite 

     (and 

      (not $e40) $e27) #b1 #b0)))) #b1))

(assert (= 

 (bvnot 

  (bvand $e39 

   (bvnot 

    (ite $e41 #b1 #b0)))) #b1))

(assert (= 

 (bvnot 

  (bvand 

   (bvnot 

    (ite $e34 #b1 #b0)) $e35)) #b1))

(assert (= 

 (bvnot $e38) #b1))

(assert (= 

 (bvnot 

  (bvand 

   (bvnot 

    (ite $e37 #b1 #b0)) $e38)) #b1))

(assert (= 

 (bvnot 

  (bvand $e35 

   (bvnot 

    (ite 

     (and 

      (not $e33) $e27) #b1 #b0)))) #b1))

(assert (= 

 (bvnot 

  (bvand $e32 

   (bvnot 

    (ite $e34 #b1 #b0)))) #b1))

(assert (= 

 (bvnot 

  (bvand 

   (bvnot 

    (ite $e26 #b1 #b0)) $e28)) #b1))

(assert (= 

 (bvnot $e31) #b1))

(assert (= 

 (bvnot 

  (bvand 

   (bvnot 

    (ite $e30 #b1 #b0)) $e31)) #b1))

(assert (= 

 (bvnot 

  (bvand $e28 

   (bvnot 

    (ite 

     (and $e27 

      (not $e25)) #b1 #b0)))) #b1))

(assert (= 

 (bvnot 

  (bvand |goto_symex::guard?0!0&0#13| 

   (bvnot 

    (ite $e26 #b1 #b0)))) #b1))

(assert $e24)

(assert (= 

 (bvnot 

  (bvand 

   (ite $e17 #b1 #b0) $e20)) #b1))

(assert (= 

 (bvnot 

  (bvand 

   (bvnot 

    (ite $e18 #b1 #b0)) $e20)) #b1))

(assert (= 

 (bvnot 

  (bvand $e16 

   (bvnot 

    (ite $e18 #b1 #b0)))) #b1))

(assert (= 

 (bvnot 

  (bvand 

   (ite $e12 #b1 #b0) $e15)) #b1))

(assert (= 

 (bvnot 

  (bvand 

   (bvnot 

    (ite $e13 #b1 #b0)) $e15)) #b1))

(assert (= 

 (bvnot 

  (bvand $e11 

   (bvnot 

    (ite $e13 #b1 #b0)))) #b1))

(assert (= 

 (bvnot 

  (bvand 

   (ite $e7 #b1 #b0) $e10)) #b1))

(assert (= 

 (bvnot 

  (bvand 

   (bvnot 

    (ite $e8 #b1 #b0)) $e10)) #b1))

(assert (= 

 (bvnot 

  (bvand $e6 

   (bvnot 

    (ite $e8 #b1 #b0)))) #b1))

(assert (= 

 (bvnot 

  (bvand 

   (ite $e2 #b1 #b0) $e5)) #b1))

(assert (= 

 (bvnot 

  (bvand 

   (bvnot 

    (ite $e3 #b1 #b0)) $e5)) #b1))

(assert (= 

 (bvnot 

  (bvand |goto_symex::guard?0!0&0#5| 

   (bvnot 

    (ite $e3 #b1 #b0)))) #b1))

(assert $e1)

(assert 

 (bvslt |c:flag_loopdep_simple.i@935@F@init@i?1!0&0#2| #b00000000000011110100001001000000))

(assert 

 (not $e22))

(assert 

 (not $e21))

(assert (= |execution_statet::guard_exec?0!0| #b1))

(assert (= |goto_symex::guard?0!0&0#24| #b1))

(assert (= |goto_symex::guard?0!0&0#23| #b1))

(assert (= |goto_symex::guard?0!0&0#22| #b1))

(assert (= |goto_symex::guard?0!0&0#19| #b1))

(assert (= |goto_symex::guard?0!0&0#16| #b1))

(assert (= |goto_symex::guard?0!0&0#13| #b1))

(check-sat)

(exit)
